$
$ Database for high entropy alloys version 2.0, January 2017
$
$ Database created 2016.11.13 by Bengt Hallstedt.
$ Version 2 created 2017.01.17
$ Version 2b created 2017.07.24
$
$ Version 2b contains ternary parameters for Al-Fe-Ni from L. Zhang et al. 2009
$ instead of L. Zhang and Y. Du 2007. The older assessment results in far too
$ high liquidus temperatures in the Al-poor part (including the AlFe-AlNi
$ section) of the system.
$
$ Version 1 contains the elements Co, Cr, Fe, Mn and Ni (i.e. the "classical"
$ Cantor system). It contains evaluations for all ten binary and ten ternary
$ systems. However, Co-Cr-Fe, Co-Cr-Mn and Co-Mn-Ni are simply extrapolations
$ from their respective binaries. For Co-Cr-Mn and Co-Mn-Ni there is an almost
$ complete lack of experimental data. For Co-Cr-Fe there are experimental data,
$ but the system has not yet been assessed.
$
$ Version two additionally contains the elements Al and C. Important new
$ phases are (Co,Ni)Al-B2 and kappa (Co,Fe,Mn,Ni)3AlC.
$
$ The following section applies only to version 1 of the database:
$ There is a 4-sublattice model for fcc and a 2-sublattice model for bcc.
$ These models are excluded by default, but can be included for calculations
$ at low temperature and/or close the binaries where they are stable.
$ L1_2 is stable as FeNi3 and MnNi3, L1_0 as MnNi-LT and B2 as CoFe and MnNi-HT.
$ At low temperature in some ternaries there are regions of ordered fcc (L1_2)
$ which are questionable. When FCC_4SL is included calculations can be rather
$ slow.
$
$ ------------------------------------------------------------------------------
 TEMP-LIM 298.15 6000.00 !
$
$ELEMENT NAME  REF. STATE               ATOMIC MASS H298-H0    S298    !
$
 ELEMENT VA   VACUUM                      0.0          0.0      0.0    ! 
 ELEMENT AL   FCC_A1                     26.98154   4540.      28.30   ! 
 ELEMENT C    GRAPHITE                   12.011     1054.0      5.7423 ! 
 ELEMENT CO   HCP_A3                     58.9332    4765.567   30.0400 ! 
 ELEMENT CR   BCC_A2                     51.996     4050.0     23.5429 ! 
 ELEMENT FE   BCC_A2                     55.847     4489.0     27.2797 ! 
 ELEMENT MN   CBCC_A12                   54.9380    4995.696   32.2206 ! 
 ELEMENT NI   FCC_A1                     58.69      4787.0     29.7955 ! 
$ ------------------------------------------------------------------------------
$ Phase definitions
$
 PHASE LIQUID:L % 1 1 !
 CONST LIQUID:L : AL C CO CR FE MN NI : !
$
$ Fcc (cF4, Fm-3m) and MeX (cF8, Fm-3m)
$
 PHASE FCC_A1 %A 2 1 1 !
 CONST FCC_A1 : AL% CO% CR FE% MN% NI% : C VA% : !
$
$ Disordered part of FCC_4SL, identical to FCC_A1
$
 PHASE A1_FCC %A 2 1 1 !
 CONST A1_FCC : AL CO CR FE MN NI : C VA% : !
$
$ Prototype AuCu3 (cP4, Pm-3m, L1_2) and AuCu (tP4, P4/mmm, L1_0)
$
 PHASE FCC_4SL:F %AY 5 0.25 0.25 0.25 0.25 1 !
 CONST FCC_4SL:F : AL CO CR FE MN NI : AL CO CR FE MN NI 
                 : AL CO CR FE MN NI : AL CO CR FE MN NI : C VA% :  !
$
$ Bcc (cI2, Im-3m)
$
 PHASE BCC_A2 %B 2 1 3 !
 CONST BCC_A2 : AL CO CR% FE% MN% NI : C VA% : !
$
$ Disordered part of B2_BCC, identical to BCC_A2 (except Va)
$
 PHASE A2_BCC %B 2 1 3 !
 CONST A2_BCC : AL CO CR FE MN NI VA : C VA% : !
$
$ Prototype CsCl (cP2, Pm-3m)
$
 PHASE B2_BCC %BO 3 0.5 0.5 3 !
 CONST B2_BCC : AL CO CR FE MN% NI VA : AL CO CR FE MN NI% VA : C VA% : !
$
$ Hcp (hP2, P6_3/mmc) and Me2X (NiAs-type, hP4, P6_3/mmc, B8_1)
$
 PHASE HCP_A3 %A 2 1 0.5 !
 CONST HCP_A3 : AL CO% CR FE MN NI : C VA% : !
$
$ Prototype C (cF8, Fd-3m)
$
 PHASE DIAMOND_A4 % 1 1 !
 CONST DIAMOND_A4 : C : !
$
$ Prototype C (hP4, P6_3/mmc)
$
 PHASE GRAPHITE_A9 % 1 1 !
 CONST GRAPHITE_A9 : C : !
$
$ Prototype alpha-Mn (cI58, I-43m)
$
 PHASE CBCC_A12 %A 2 1 1 !
 CONST CBCC_A12 : AL CO CR FE MN% NI : C VA% : !
$
$ Prototype beta-Mn (cP20, P4_132)
$
 PHASE CUB_A13 % 2 1 1 !
 CONST CUB_A13 : AL CO CR FE MN% NI : C VA% : !
$
$ Prototype Al4C3 (hR7, R-3m)
$
 PHASE AL4C3_D71 % 2 4 3 !
 CONST AL4C3_D71 : AL : C : !
$
$ Prototype Al5Co2 (hP28, P6_3/mmc), also Al10Fe3Ni
$
 PHASE AL5CO2_D811 % 2 5 2 !
 CONST AL5CO2_D811 : AL : CO FE NI : !
$
$ Unknown structure
$
 PHASE AL3CO % 2 3 1 !
 CONST AL3CO : AL : CO : !
$
$ Prototype Al19Co6 (mC100, C2/m)
$
 PHASE AL13CO4 % 2 13 4 !
 CONST AL13CO4 : AL : CO : !
$
$ Prototype Al9Co2 (mP22, P2_1/c), also Al9FeNi
$
 PHASE AL9CO2 % 2 9 2 !
 CONST AL9CO2 : AL : CO FE NI : !
$
$ Prototype Al45V7 (mC104, C2/m)
$
 PHASE AL13CR2 % 2 13 2 !
 CONST AL13CR2 : AL : CR : !
$
$ Prototype Al5Cr (mC732, C2/c)
$
 PHASE AL11CR2 % 3 10 1 2 !
 CONST AL11CR2 : AL : AL : CR :  !
$
$ Prototype Al4Mn-mu (hP574, P6_3/mmc)
$
 PHASE AL4CR % 2 4 1 !
 CONST AL4CR : AL : CR : !
$
$ Unknown structure
$
 PHASE AL9CR4_H % 2 9 4 !
 CONST AL9CR4_H : AL : CR : !
$
$ Prototype Al9Cr4 (cI52, I-43m ?)
$
 PHASE AL9CR4_L % 2 9 4 !
 CONST AL9CR4_L : AL : CR : !
$
$ Prototype Cu5Zn8 (cI52, I-43m)
$
 PHASE AL8CR5_D82 % 2 8 5 !
 CONST AL8CR5_D82 : AL : CR : !
$
$ Prototype Al8Cr5 (hR26, R3m)
$
 PHASE AL8CR5_D810 % 2 8 5 !
 CONST AL8CR5_D810 : AL : CR : !
$
$ Prototype MoSi2 (tI6, I4/mmm)
$
 PHASE ALCR2_C11B % 2 1 2 !
 CONST ALCR2_C11B : AL : CR : !
$
$ Prototype Al13Fe4 (mC102, C2/m)
$
 PHASE AL13FE4 % 3 0.6275 0.235 0.1375 !
 CONST AL13FE4 : AL : FE% MN NI : AL VA : !
$
$ Prototype Al5Fe2 (oC24, Cmcm)
$ Al5Fe2 does not have the Al5Co2 (D8_11) structure
$
 PHASE AL5FE2 % 2 5 2 !
 CONST AL5FE2 : AL : FE% NI : !
$
$ Prototype Al2Fe (aP18, P1)
$
 PHASE AL2FE % 2 2 1 !
 CONST AL2FE : AL : FE% NI : !
$
$ Prototype Cu8Zn5 (cI52, I-43m)
$
 PHASE AL8FE5_D82 % 2 8 5 !
 CONST AL8FE5_D82 : AL FE : AL FE : !
$
$ Decagonal (quasicrystal)
$
 PHASE AL71FE5NI24 % 3 0.71 0.05 0.24 !
 CONST AL71FE5NI24 : AL : FE : NI : !
$
$ Prototype Al12W (cI26, Im-3)
$
 PHASE AL12MN % 2 12 1 !
 CONST AL12MN : AL : MN : !
$
$ Prototype Al6Mn (oC28, Cmcm)
$
 PHASE AL6MN_D2H % 2 6 1 !
 CONST AL6MN_D2H : AL : FE MN% : !
$
$ Prototype lambda-Al4Mn (hP586, P6_3/m)
$
 PHASE AL4MN_LAMBDA % 2 0.81162 0.18838 !
 CONST AL4MN_LAMBDA : AL : MN : !
$
$ Prototype mu-Al4Mn (hP574, P6_3/mmc)
$
 PHASE AL4MN_MU % 2 4 1 !
 CONST AL4MN_MU : AL : FE MN% : !
$
$ Prototype Al11Mn4 (aP15, P-1)
$
 PHASE AL11MN4_LT % 2 11 4 !
 CONST AL11MN4_LT : AL : MN : !
$
$ Prototype Al3Mn (oP156, Pnma)
$
 PHASE AL11MN4_HT % 3 9 2 2 !
 CONST AL11MN4_HT : AL : AL MN : MN : !
$
$ Prototype Al8Cr5 (hR26, R3m)
$
 PHASE AL8MN5_D810 % 3 12 5 9 !
 CONST AL8MN5_D810 : AL : MN : AL FE MN : !
$
$ Prototype Fe3C (oP16, Pnma)
$
 PHASE AL3NI_D011 % 2 0.75 0.25 !
 CONST AL3NI_D011 : AL : FE NI% : !
$
$ Prototype Al3Ni2 (hP5, P-3m1)
$
 PHASE AL3NI2_D513 % 3 3 2 1 !
 CONST AL3NI2_D513 : AL : AL FE NI% : NI VA% : !
$
$ Prototype Ga4Ni3 (cI112, Ia-3d)
$
 PHASE AL4NI3 % 2 4 3 !
 CONST AL4NI3 : AL : NI : !
$
$ Prototype Ga3Pt5 (oC16, Cmmm)
$
 PHASE AL3NI5 % 2 0.375 0.625 !
 CONST AL3NI5 : AL : NI : !
$
$ Prototype Cr3C2 (oP20, Pnma)
$
 PHASE CR3C2_D510 % 2 3 2 !
 CONST CR3C2_D510 : CO CR% : C : !
$
$ Similar to alpha-Mn (cI58)
$
 PHASE CR3MN5 % 2 3 5 !
 CONST CR3MN5 : CR : MN : !
$
$ Prototype MoPt2 (oP6, Immm)
$
 PHASE CRNI2 % 2 1 2 !
 CONST CRNI2 : CR : NI : !
$
$ Prototype Cr23C6 (cF116, Fm-3m)
$
 PHASE M23C6_D84 % 3 20 3 6 !
 CONST M23C6_D84 : CO CR FE MN NI : CO CR FE MN NI : C : !
$
$ Prototype Fe3C (oP16, Pnma)
$
 PHASE CEMENTITE_D011 % 2 3 1 !
 CONST CEMENTITE_D011 : CO CR FE MN NI : C : !
$
$ Prototype Mn5C2 (mC28, C2/c), Haegg carbide, chi
$
 PHASE M5C2 % 2 5 2 !
 CONST M5C2 : FE MN : C : !
$
$ Prototype Cr7C3 (oP40, Pnma)
$
 PHASE M7C3_D101 % 2 7 3 !
 CONST M7C3_D101 : CO CR FE MN NI : C : !
$
$ Prototype CaTiO3 (cP5, Pm-3m)
$
 PHASE KAPPA_E21 % 3 1 3 1 !
 CONST KAPPA_E21 : AL : CO FE MN NI : C% VA : !
$
$ Prototype Cr2AlC (hP8, P6_3/mmc)
$
 PHASE MAX_PHASE % 3 2 1 1 !
 CONST MAX_PHASE : AL CR% : AL : C : !
$
$ Prototype CrFe (tP30, P4_2/mnm)
$
 PHASE SIGMA_D8B % 3 10 4 16 !
 CONST SIGMA_D8B : AL CO FE MN NI : CR : AL CO CR FE MN NI : !
$
$ Prototype CrFe (tP30, P4_2/mnm, D8b)
$
 PHASE HIGH_SIGMA % 3 10 4 16 !
 CONST HIGH_SIGMA : AL CO FE MN NI : CR : AL CO FE CR MN NI : !
$ ------------------------------------------------------------------------------
$ Defaults
$
 DEFINE-SYSTEM-DEFAULT ELEMENT 2 !
 DEFAULT-COM DEFINE_SYSTEM_ELEMENT VA !
 DEFAULT-COM REJECT_PHASE FCC_A1 BCC_A2 !
$DEFAULT-COM REJECT_PHASE A1_FCC FCC_4SL A2_BCC B2_BCC !
 TYPE-DEF % SEQ * !
 TYPE-DEF A GES AMEND_PHASE_DESCRIPTION @ MAGNETIC -3 0.28 !
 TYPE-DEF B GES AMEND_PHASE_DESCRIPTION @ MAGNETIC -1 0.4 !
 TYPE-DEF O GES AMEND_PHASE_DESCRIPTION B2_BCC DIS_PART A2_BCC !
 TYPE-DEF Y GES AMEND_PHASE_DESCRIPTION FCC_4SL DIS_PART A1_FCC !
 FUNCTION ZERO      298.15  0;                                         6000 N !
 FUNCTION UN_ASS    298.15  0;                                         6000 N !
 FUNCTION R         298.15  +8.31451;                                  6000 N !
$ ------------------------------------------------------------------------------
$ Element data
$ ------------------------------------------------------------------------------
$ Al
$
$ BCT_A5 and DIAMOND_A4 added in unary 3.0
$
 PAR  G(FCC_A1,AL:VA),,                 +GHSERAL;                2900 N 91Din !
 PAR  G(A1_FCC,AL:VA),,                 +GHSERAL;                2900 N 91Din !
 PAR  G(BCC_A2,AL:VA),,                 +GHSERAL+10083-4.813*T;  2900 N 91Din !
 PAR  G(A2_BCC,AL:VA),,                 +GHSERAL+10083-4.813*T;  2900 N 91Din !
 PAR  G(HCP_A3,AL:VA),,                 +GHSERAL+5481-1.8*T;     2900 N 91Din !
 PAR  G(CBCC_A12,AL:VA),,               +GHSERAL
             +10083.4-4.813*T;                                   2900 N 91Din !
 PAR  G(CUB_A13,AL:VA),,                +GHSERAL
             +10920.44-4.8116*T;                                 2900 N 91Din !
 PAR  G(BCT_A5,AL),,                    +GHSERAL+10083-4.813*T;  2900 N SGCOST !
 PAR  G(DIAMOND_A4,AL),,                +GHSERAL+30*T;           2900 N SGCOST !
 PAR  G(LIQUID,AL),,                    +GLIQAL;                 2900 N 91Din !
$
 PAR  L(A2_BCC,AL,VA:VA;0),,            +GB2ALVA+LB2ALVA;,,           N 99Dup1 !
 PAR  G(B2_BCC,VA:AL:VA),,              +0.5*GB2ALVA-0.5*LB2ALVA;,,   N 99Dup1 !
 PAR  G(B2_BCC,AL:VA:VA),,              +0.5*GB2ALVA-0.5*LB2ALVA;,,   N 99Dup1 !
$
 PAR  G(AL8FE5_D82,AL:AL),,             +13*GBCCAL;,,                 N 09Sun !
 PAR  G(AL3NI2_D513,AL:AL:VA),,         +5*GBCCAL+30000-3*T;,,        N 97Ans !
$
 FUNCTION GHSERAL   298.15  -7976.15+137.093038*T-24.3671976*T*LN(T)
       -0.001884662*T**2-8.77664E-07*T**3+74092*T**(-1);
       700.00  Y  -11276.24+223.048446*T-38.5844296*T*LN(T)
       +0.018531982*T**2 -5.764227E-06*T**3+74092*T**(-1);
       933.47  Y  -11278.378+188.684153*T-31.748192*T*LN(T)
       -1.230524E+28*T**(-9);
      2900.00  N !
 FUNCTION GLIQAL    298.15  +11005.029-11.841867*T+GHSERAL+7.9337E-20*T**7;
       933.47  Y  -795.996+177.430178*T-31.748192*T*LN(T);
      2900.00  N !
 FUNCTION GBCCAL    298.15  +GHSERAL+10083-4.813*T;                    2900 N !
 FUNCTION GHCPAL    298.15  +GHSERAL+5481-1.8*T;                       2900 N !
$
$ In the original 99Dup publication GB2ALVA=10-0.001*T and LB2ALVA=100000.
$ In 97Ans GB2ALVA=1000-T
$ In LBall-v7+fun.tdb LB2ALVA=150000
$ and in AlFeNiTi-bosse-0701.TDB LB2ALVA=200000
$ With G(A2_BCC,VA:VA)=30*T the same amount must be subtracted from GB2ALVA.
 FUNCTION GB2ALVA   298.15  +10000-T-30*T;                             6000 N !
 FUNCTION LB2ALVA   298.15  +150000;                                   6000 N !
$ ------------------------------------------------------------------------------
$ C
$
$ B2_BCC with Va on the substitutional sites and 1/3 Va on the interstitial
$ sites is more stable than liquid C. This only matters for metastable
$ calculations (i.e. without graphite).
$
 PAR  G(GRAPHITE,C),,                   +GHSERCC;,,                   N 91Din !
 PAR  G(DIAMOND_A4,C),,                 +GDIACC;,,                    N 91Din !
 PAR  G(LIQUID,C),,                     +GHSERCC+117369-24.63*T;,,    N 91Din !
$
 PAR  G(A2_BCC,VA:C),,                  +30*T;,,                      N 09Sun !
$
 FUNCTION GHSERCC   298.15  -17368.441+170.73*T-24.3*T*LN(T)
       -4.723E-04*T**2+2562600*T**(-1)-2.643E+08*T**(-2)+1.2E+10*T**(-3);
      6000.00  N !
 FUNCTION GDIACC    298.15  -16359.441+175.61*T-24.31*T*LN(T)
       -4.723E-04*T**2+2698000*T**(-1)-2.61E+08*T**(-2)+1.11E+10*T**(-3);
      6000.00  N !
$ ------------------------------------------------------------------------------
$ Co
$
 PAR  G(HCP_A3,CO:VA),,                 +GHSERCO;,,                   N 91Din !
 PAR  TC(HCP_A3,CO:VA),,                 1396.00;,,                   N 91Din !
 PAR  BM(HCP_A3,CO:VA),,                    1.35;,,                   N 91Din !
 PAR  G(FCC_A1,CO:VA),,                 +GHSERCO
             +427.591-0.615248*T;,,                                   N 91Din !
 PAR  TC(FCC_A1,CO:VA),,                 1396.00;,,                   N 91Din !
 PAR  BM(FCC_A1,CO:VA),,                    1.35;,,                   N 91Din !
 PAR  G(A1_FCC,CO:VA),,                 +GHSERCO
             +427.591-0.615248*T;,,                                   N 91Din !
 PAR  TC(A1_FCC,CO:VA),,                 1396.00;,,                   N 91Din !
 PAR  BM(A1_FCC,CO:VA),,                    1.35;,,                   N 91Din !
 PAR  G(BCC_A2,CO:VA),,                 +GHSERCO+2938-0.7138*T;,,     N 91Din !
 PAR  TC(BCC_A2,CO:VA),,                 1450.00;,,                   N 91Din !
 PAR  BM(BCC_A2,CO:VA),,                    1.35;,,                   N 91Din !
 PAR  G(A2_BCC,CO:VA),,                 +GHSERCO+2938-0.7138*T;,,     N 91Din !
 PAR  TC(A2_BCC,CO:VA),,                 1450.00;,,                   N 91Din !
 PAR  BM(A2_BCC,CO:VA),,                    1.35;,,                   N 91Din !
 PAR  G(CBCC_A12,CO:VA),,               +GHSERCO+4155;,,              N 91Din !
 PAR  G(CUB_A13,CO:VA),,                +GHSERCO+3155;,,              N 91Din !
 PAR  G(LIQUID,CO),,                    +GLIQCO;,,                    N 91Din !
$
$PAR  L(A2_BCC,CO,VA:VA;0),,            +GB2COVA+LB2COVA;,,           N 15Liu !
$PAR  G(B2_BCC,VA:CO:VA),,              +0.5*GB2COVA-0.5*LB2COVA;,,   N 15Liu !
$PAR  G(B2_BCC,CO:VA:VA),,              +0.5*GB2COVA-0.5*LB2COVA;,,   N 15Liu !
$ With G(A2_BCC,VA:VA)=30*T the parameters below have to be adjusted.
 PAR  L(A2_BCC,CO,VA:VA;0),,            +135000-30*T;,,               N 99Dup2 !
 PAR  G(B2_BCC,VA:CO:VA),,              +67500-15*T;,,                N 99Dup2 !
 PAR  G(B2_BCC,CO:VA:VA),,              +67500-15*T;,,                N 99Dup2 !
$
 FUNCTION GHSERCO   298.15  +310.241+133.36601*T-25.0861*T*LN(T)
       -0.002654739*T**2-1.7348E-07*T**3+72527*T**(-1);
      1768.00  Y  -17197.666+253.28374*T-40.5*T*LN(T)+9.3488E+30*T**(-9);
      6000.00  N !
 FUNCTION GLIQCO    298.15  +15085.037-8.931932*T+GHSERCO-2.19801E-21*T**7;
      1768.00  Y  -846.61+243.599944*T-40.5*T*LN(T);
      6000.00  N !
 FUNCTION GFCCCO    298.15  +GHSERCO+427.59-0.615248*T;                6000 N !
 FUNCTION GBCCCO    298.15  +GHSERCO+2938-0.7138*T;                    6000 N !
$
$ With G(A2_BCC,VA:VA)=30*T the same amount must be subtracted from GB2COVA.
$FUNCTION GB2COVA   298.15  +148500-35.62*T-30*T;                      6000 N !
$FUNCTION LB2COVA   298.15  +45030-34.47*T;                            6000 N !
$ ------------------------------------------------------------------------------
$ Cr
$
 PAR  G(BCC_A2,CR:VA),,                 +GHSERCR;,,                   N 91Din !
 PAR  TC(BCC_A2,CR:VA),,                 -311.50;,,                   N 91Din !
 PAR  BM(BCC_A2,CR:VA),,                   -0.008;,,                  N 91Din !
 PAR  G(A2_BCC,CR:VA),,                 +GHSERCR;,,                   N 91Din !
 PAR  TC(A2_BCC,CR:VA),,                 -311.50;,,                   N 91Din !
 PAR  BM(A2_BCC,CR:VA),,                   -0.008;,,                  N 91Din !
 PAR  G(FCC_A1,CR:VA),,                 +GHSERCR+7284+0.163*T;,,      N 91Din !
 PAR  TC(FCC_A1,CR:VA),,                -1109.00;,,                   N 91Din !
 PAR  BM(FCC_A1,CR:VA),,                   -2.46;,,                   N 91Din !
 PAR  G(A1_FCC,CR:VA),,                 +GHSERCR+7284+0.163*T;,,      N 91Din !
 PAR  TC(A1_FCC,CR:VA),,                -1109.00;,,                   N 91Din !
 PAR  BM(A1_FCC,CR:VA),,                   -2.46;,,                   N 91Din !
 PAR  G(HCP_A3,CR:VA),,                 +GHSERCR+4438;,,              N 91Din !
 PAR  TC(HCP_A3,CR:VA),,                -1109.00;,,                   N 91Din !
 PAR  BM(HCP_A3,CR:VA),,                   -2.46;,,                   N 91Din !
 PAR  G(CBCC_A12,CR:VA),,               +GHSERCR+11087+2.7196*T;,,    N 91Din !
 PAR  G(CUB_A13,CR:VA),,                +GHSERCR+15899+0.6276*T;,,    N 91Din !
 PAR  G(LIQUID,CR),,                    +GLIQCR;,,                    N 91Din !
$
$PAR  L(A2_BCC,CR,VA:VA;0),,            +120*T;,,                     N 02Sun !
$PAR  G(B2_BCC,CR:VA:VA),,              +100000;,,                    N 16Hal2 !
$PAR  G(B2_BCC,VA:CR:VA),,              +100000;,,                    N 16Hal2 !
 PAR  L(A2_BCC,CR,VA:VA;0),,            +150000;,,                    N 09Sun !
 PAR  G(B2_BCC,CR:VA:VA),,              +ZERO;,,                      N 09Sun !
 PAR  G(B2_BCC,VA:CR:VA),,              +ZERO;,,                      N 09Sun !
$
 FUNCTION GHSERCR   298.15  -8856.94+157.48*T-26.908*T*LN(T)
       +0.00189435*T**2-1.47721E-06*T**3+139250*T**(-1);
      2180.00  Y  -34869.344+344.18*T-50*T*LN(T)-2.88526E+32*T**(-9);
      6000.00  N !
 FUNCTION GLIQCR    298.15  +24339.955-11.420225*T+GHSERCR+2.37615E-21*T**7;
      2180.00  Y  -16459.984+335.616316*T-50*T*LN(T);
      6000.00  N !
 FUNCTION GFCCCR    298.15  +GHSERCR+7284+0.163*T;                     6000 N !
$ ------------------------------------------------------------------------------
$ Fe
$
$ ORTHORHOMBIC_A20 and TETRAGONAL_U added im unary 4.1
$
 PAR  G(BCC_A2,FE:VA),,                 +GHSERFE;,,                   N 91Din !
 PAR  TC(BCC_A2,FE:VA),,                 1043.00;,,                   N 91Din !
 PAR  BM(BCC_A2,FE:VA),,                    2.22;,,                   N 91Din !
 PAR  G(A2_BCC,FE:VA),,                 +GHSERFE;,,                   N 91Din !
 PAR  TC(A2_BCC,FE:VA),,                 1043.00;,,                   N 91Din !
 PAR  BM(A2_BCC,FE:VA),,                    2.22;,,                   N 91Din !
 PAR  G(FCC_A1,FE:VA),,                 +GFCCFE;,,                    N 91Din !
 PAR  TC(FCC_A1,FE:VA),,                 -201.00;,,                   N 91Din !
 PAR  BM(FCC_A1,FE:VA),,                   -2.10;,,                   N 91Din !
 PAR  G(A1_FCC,FE:VA),,                 +GFCCFE;,,                    N 91Din !
 PAR  TC(A1_FCC,FE:VA),,                 -201.00;,,                   N 91Din !
 PAR  BM(A1_FCC,FE:VA),,                   -2.10;,,                   N 91Din !
 PAR  G(HCP_A3,FE:VA),,                 +GHCPFE;,,                    N 91Din !
 PAR  G(CBCC_A12,FE:VA),,               +GHSERFE+4745;,,              N 91Din !
 PAR  G(CUB_A13,FE:VA),,                +GHSERFE+3745;,,              N 91Din !
 PAR  G(ORTHORHOMBIC_A20,FE),,          +GHSERFE+5000;,,              N 99SGUN !
 PAR  G(TETRAGONAL_U,FE),,              +GHSERFE+5000;,,              N 99SGUN !
 PAR  G(LIQUID,FE),,                    +GLIQFE;,,                    N 91Din !
$
 PAR  L(A2_BCC,FE,VA:VA;0),,            +150000;,,                    N 09Sun !
 PAR  G(B2_BCC,FE:VA:VA),,              +ZERO;,,                      N 09Sun !
 PAR  G(B2_BCC,VA:FE:VA),,              +ZERO;,,                      N 09Sun !
$
 PAR  G(AL8FE5_D82,FE:FE),,             +13*GHSERFE+13000;,,          N 09Sun !
$
 FUNCTION GHSERFE   298.15  +1225.7+124.134*T-23.5143*T*LN(T)
       -0.00439752*T**2-5.8927E-08*T**3+77359*T**(-1);
      1811.00  Y  -25383.581+299.31255*T-46*T*LN(T)+2.29603E+31*T**(-9);
      6000.00  N !
 FUNCTION GFCCFE    298.15  -1462.4+8.282*T-1.15*T*LN(T)
       +6.4E-04*T**2+GHSERFE;
      1811.00  Y  -1713.815+0.940009*T+GHSERFE+4.9251E+30*T**(-9);
      6000.00  N !
 FUNCTION GHCPFE    298.15  -3705.78+12.591*T-1.15*T*LN(T)
       +6.4E-04*T**2+GHSERFE;
      1811.00  Y  -3957.195+5.249009*T+GHSERFE+4.9251E+30*T**(-9);
      6000.00  N !
 FUNCTION GLIQFE    298.15  +12040.17-6.55843*T+GHSERFE-3.67516E-21*T**7;
      1811.00  Y  -10838.83+291.302*T-46*T*LN(T);
      6000.00  N !
$ ------------------------------------------------------------------------------
$ Mn
$
 PAR  G(CBCC_A12,MN:VA),,               +GHSERMN;                2000 N 91Din !
 PAR  TC(CBCC_A12,MN:VA),,               -285.00;                2000 N 91Din !
 PAR  BM(CBCC_A12,MN:VA),,                 -0.66;                2000 N 91Din !
 PAR  G(CUB_A13,MN:VA),,                +GCUBMN;                 2000 N 91Din !
 PAR  G(FCC_A1,MN:VA),,                 +GFCCMN;                 2000 N 91Din !
 PAR  TC(FCC_A1,MN:VA),,                -1620.00;                2000 N 91Din !
 PAR  BM(FCC_A1,MN:VA),,                   -1.86;                2000 N 91Din !
 PAR  G(A1_FCC,MN:VA),,                 +GFCCMN;                 2000 N 91Din !
 PAR  TC(A1_FCC,MN:VA),,                -1620.00;                2000 N 91Din !
 PAR  BM(A1_FCC,MN:VA),,                   -1.86;                2000 N 91Din !
 PAR  G(BCC_A2,MN:VA),,                 +GBCCMN;                 2000 N 91Din !
 PAR  TC(BCC_A2,MN:VA),,                 -580.00;                2000 N 91Din !
 PAR  BM(BCC_A2,MN:VA),,                   -0.27;                2000 N 91Din !
 PAR  G(A2_BCC,MN:VA),,                 +GBCCMN;                 2000 N 91Din !
 PAR  TC(A2_BCC,MN:VA),,                 -580.00;                2000 N 91Din !
 PAR  BM(A2_BCC,MN:VA),,                   -0.27;                2000 N 91Din !
 PAR  G(HCP_A3,MN:VA),,                 +GHCPMN;                 2000 N 91Din !
 PAR  TC(HCP_A3,MN:VA),,                -1620.00;                2000 N 91Din !
 PAR  BM(HCP_A3,MN:VA),,                   -1.86;                2000 N 91Din !
 PAR  G(LIQUID,MN),,                    +GLIQMN;                 2000 N 91Din !
$
$PAR  L(A2_BCC,MN,VA:VA;0),,            +120*T;,,                     N 02Sun !
$PAR  G(B2_BCC,MN:VA:VA),,              +100000;,,                    N 16Hal2 !
$PAR  G(B2_BCC,VA:MN:VA),,              +100000;,,                    N 16Hal2 !
 PAR  L(A2_BCC,MN,VA:VA;0),,            +150000;,,                    N 09Sun !
 PAR  G(B2_BCC,MN:VA:VA),,              +ZERO;,,                      N 09Sun !
 PAR  G(B2_BCC,VA:MN:VA),,              +ZERO;,,                      N 09Sun !
$
 FUNCTION GHSERMN   298.15  -8115.28+130.059*T-23.4582*T*LN(T)
       -0.00734768*T**2+69827*T**(-1);
      1519.00  Y  -28733.41+312.2648*T-48*T*LN(T)+1.656847E+30*T**(-9);
      2000.00  N !
 FUNCTION GCUBMN    298.15  -5800.4+135.995*T-24.8785*T*LN(T)
       -0.00583359*T**2+70269*T**(-1);
      1519.00  Y  +442.65-0.9715*T+GHSERMN+2.310723E+30*T**(-9);
      2000.00  N !
 FUNCTION GFCCMN    298.15  -3439.3+131.884*T-24.5177*T*LN(T)
       -0.006*T**2+69600*T**(-1);
      1519.00  Y  +2663.31-2.5984*T+GHSERMN+2.205113E+30*T**(-9);
      2000.00  N !
 FUNCTION GBCCMN    298.15  -3235.3+127.85*T-23.7*T*LN(T)
       -0.00744271*T**2+60000*T**(-1);
      1519.00  Y  +5544.58-4.5605*T+GHSERMN-3.91695E+29*T**(-9);
      2000.00  N !
 FUNCTION GHCPMN    298.15  -4439.3+133.007*T-24.5177*T*LN(T)
       -0.006*T**2+69600*T**(-1);
      1519.00  Y  +1663.31-1.4754*T+GHSERMN+2.205113E+30*T**(-9);
      2000.00  N !
 FUNCTION GLIQMN    298.15  +17859.91-12.6208*T+GHSERMN-4.41929E-21*T**7;
      1519.00  Y  -9993.9+299.036*T-48*T*LN(T);
      2000.00  N !
$ ------------------------------------------------------------------------------
$ Ni
$
$ FCC_A1 and LIQUID modified in unary 5.0 (slight change in upper T interval)
$ BCT_A5 added in unary 5.0
$
 PAR  G(FCC_A1,NI:VA),,                 +GHSERNI;                3000 N 91Din !
 PAR  TC(FCC_A1,NI:VA),,                  633.00;                3000 N 91Din !
 PAR  BM(FCC_A1,NI:VA),,                    0.52;                3000 N 91Din !
 PAR  G(A1_FCC,NI:VA),,                 +GHSERNI;                3000 N 91Din !
 PAR  TC(A1_FCC,NI:VA),,                  633.00;                3000 N 91Din !
 PAR  BM(A1_FCC,NI:VA),,                    0.52;                3000 N 91Din !
 PAR  G(BCC_A2,NI:VA),,                 +GHSERNI
             +8715.084-3.556*T;                                  3000 N 91Din !
 PAR  TC(BCC_A2,NI:VA),,                  575.00;                3000 N 91Din !
 PAR  BM(BCC_A2,NI:VA),,                    0.85;                3000 N 91Din !
 PAR  G(A2_BCC,NI:VA),,                 +GHSERNI
             +8715.084-3.556*T;                                  3000 N 91Din !
 PAR  TC(A2_BCC,NI:VA),,                  575.00;                3000 N 91Din !
 PAR  BM(A2_BCC,NI:VA),,                    0.85;                3000 N 91Din !
 PAR  G(HCP_A3,NI:VA),,                 +GHSERNI+1046+1.255*T;   3000 N 91Din !
 PAR  TC(HCP_A3,NI:VA),,                  633.00;                3000 N 91Din !
 PAR  BM(HCP_A3,NI:VA),,                    0.52;                3000 N 91Din !
 PAR  G(BCT_A5,NI),,                    +GHSERNI+10023-4.556*T;  3000 N 99Gho !
 PAR  G(CBCC_A12,NI:VA),,               +GHSERNI+3556;           3000 N 91Din !
 PAR  G(CUB_A13,NI:VA),,                +GHSERNI+2092;           3000 N 91Din !
 PAR  G(LIQUID,NI),,                    +GLIQNI;                 3000 N 91Din !
$
 PAR  L(A2_BCC,NI,VA:VA;0),,            +GB2NIVA+LB2NIVA;,,           N 99Dup1 !
 PAR  G(B2_BCC,VA:NI:VA),,              +0.5*GB2NIVA-0.5*LB2NIVA;,,   N 99Dup1 !
 PAR  G(B2_BCC,NI:VA:VA),,              +0.5*GB2NIVA-0.5*LB2NIVA;,,   N 99Dup1 !
$
 FUNCTION GHSERNI   298.15  -5179.159+117.854*T-22.096*T*LN(T)-0.0048407*T**2;
      1728.00  Y  -27840.62+279.134977*T-43.1*T*LN(T)+1.12754E+31*T**(-9);
      3000.00  N !
 FUNCTION GLIQNI    298.15  +16414.686-9.397*T+GHSERNI-3.82318E-21*T**7;
      1728.00  Y  -9549.817+268.597977*T-43.1*T*LN(T);
      3000.00  N !
 FUNCTION GBCCNI    298.15  +GHSERNI+8715.084-3.556*T;                 6000 N !
$
$ With G(A2_BCC,VA:VA)=30*T the same amount must be subtracted from GB2NIVA.
 FUNCTION GB2NIVA   298.15  +162397.3-27.40575*T-30*T;                 6000 N !
 FUNCTION LB2NIVA   298.15  -64024.38+26.49419*T;                      6000 N !
$ ------------------------------------------------------------------------------
$ Va
$
 PAR  G(A2_BCC,VA:VA),,                 +30*T;,,                      N 09Sun !
$PAR  G(A2_BCC,VA:VA),,                 +ZERO;,,                      N 99Dup1 !
$PAR  L(A2_BCC,VA,*:VA;0),,             +LB2VA;,,                     N 01Sun !
$
$FUNCTION LB2VA     298.15  +100*T;                                    6000 N !
$ ------------------------------------------------------------------------------
$ Binary systems
$ ------------------------------------------------------------------------------
$ Al-C
$
$ From J. Groebner et al. 1995 (included in LB Vol. 1).
$
$ J. Groebner, H.L. Lukas, F. Aldinger, J. Alloys Compd., 220, 8-14(1995)
$ 
$ A misprint in the parameter list was corrected in 96Gro.
$ No parameters for fcc are included in 95Gro or 96Gro.
$
$ Reasonable parameters for fcc and bcc added by Connetable et al. 2008
$
$ Checked against LB and paper. Checked at 6000 K.
$
 PAR  L(LIQUID,AL,C;0),,                +40861.02-33.21138*T;,,       N 95Gro !
$
$PAR  G(FCC_A1,AL:C),,                  +GHSERAL+GHSERCC+80*T;,,      N COST !
$PAR  L(FCC_A1,AL:C,VA;0),,             +80*T;,,                      N COST !
 PAR  G(FCC_A1,AL:C),,                  +GHSERAL+GHSERCC+81000;,,     N 08Con !
 PAR  L(FCC_A1,AL:C,VA;0),,             -80000+8*T;,,                 N 08Con !
$
 PAR  G(A1_FCC,AL:C),,                  +GHSERAL+GHSERCC+81000;,,     N 08Con !
 PAR  L(A1_FCC,AL:C,VA;0),,             -80000+8*T;,,                 N 08Con !
$
 PAR  G(AL4C3_D71,AL:C),,               +GAL4C3S;,,                   N 95Gro !
$
$ metastable
$
 PAR  G(BCC_A2,AL:C),,                  +GHSERAL+3*GHSERCC
             +100000+80*T;,,                                          N 08Con !
 PAR  L(BCC_A2,AL:C,VA;0),,             +130000+14*T;,,               N 08Con !
$
 PAR  G(A2_BCC,AL:C),,                  +GHSERAL+3*GHSERCC
             +100000+80*T;,,                                          N 08Con !
 PAR  L(A2_BCC,AL:C,VA;0),,             +130000+14*T;,,               N 08Con !
$
 PAR  G(B2_BCC,AL:AL:C),,               +ZERO;,,                      N 08Con !
 PAR  G(B2_BCC,AL:VA:C),,               +ZERO;,,                      N 08Con !
 PAR  G(B2_BCC,VA:AL:C),,               +ZERO;,,                      N 08Con !
$
 PAR  G(HCP_A3,AL:C),,                  +UN_ASS;,,                    N !
 PAR  L(HCP_A3,AL:C,VA;0),,             +UN_ASS;,,                    N !
$
 PAR  L(DIAMOND_A4,AL,C;0),,            +80*T;,,                      N 96Gro !
$
 PAR  G(MAX_PHASE,AL:AL:C),,            +3*GHSERAL+GHSERCC+120000;,,  N 06Hal1 !
$
 FUNCTION GAL4C3S   298.15  -286001.52+1030.27302*T-161.709142*T*LN(T)
       -0.01152276*T**2+2450000*T**(-1)+7E-07*T**3;
      6000.00  N !
$ ------------------------------------------------------------------------------
$ Al-Co
$
$ X.L. Liu, G. Lindwall, T. Gheno, Z.-K. Liu, Calphad, 52, 125-42(2016).
$
$ Checked against tdb from authors. Checked at 6000 K.
$
$ Based on the LB version of the dataset from  N. Dupin and I. Ansara,
$ Rev. Metall. CIT, 95, 1121-29(1998), using a symmetric model for B2_BCC.
$
$ B2 and bcc were modified to remove an inverse stability range of B2 and
$ to restore the melting temperature of B2 from the original 98Dup version.
$
$ Compared to the 15Liu version there is a change in LB2ALCO resulting in a 
$ change in the Co-rich phase boundary of B2 and the fcc-Co solvus.
$ Fcc ordering (from 98Dup) revised. Magnetic parameters (from 15Liu) for B2
$ have been dropped (by mistake?).
$
$ With G(BCC_A2,VA:VA)=30*T the same amount must be subtracted from GB2ALVA